8430
14, 47, 26, 28, 25, 4, 6, 15, 5, 24, 48, 38, 40, 39, 35, 34, 44, 1, 23, 20, 50, 29, 16, 46, 37, 36, 49, 32, 22, 18, 31, 21, 30, 42, 2, 7, 17, 3, 45, 19, 41, 8, 9, 10, 43, 33, 11, 51, 12, 27, 13, 52
